n_res = 4;
rcap = [5, 12, 83, 87];
rtype = [1, 1, 2, 2];
n_tasks = 16;
modes = [ {1, 2, 3}, {4, 5, 6}, {7, 8, 9}, {10, 11, 12}, {13, 14, 15}, {16, 17, 18}, {19, 20, 21}, {22, 23, 24}, {25, 26, 27}, {28, 29, 30}, {31, 32, 33}, {34, 35, 36}, {37, 38, 39}, {40, 41, 42}, {43, 44, 45}, {46, 47, 48} ];
succ = [ {4, 5, 7}, {12, 14}, {5, 7, 8}, {8, 9, 13}, {6, 10, 13}, {9}, {9, 10, 13}, {15, 16}, {11, 12}, {11}, {14}, {15, 16}, {16}, {}, {}, {} ];
n_opt = 48;
dur = [6, 7, 9, 2, 2, 3, 4, 6, 7, 1, 6, 6, 3, 6, 7, 2, 4, 8, 1, 1, 6, 6, 7, 9, 6, 8, 10, 5, 6, 6, 1, 1, 2, 4, 4, 9, 1, 6, 10, 4, 5, 9, 5, 7, 9, 3, 5, 5];
rreq = [|  8,  0,  7,  5,  0,  5,  0,  0,  0,  0,  0,  3,  0,  0,  8,  2,  0,  0,  3,  0,  0,  2,  0,  1,  8,  8,  0,  3,  0,  3,  3,  0,  0,  0,  9,  0,  0,  0,  3,  4,  1,  0,  6,  4,  1,  0,  7,  0
        |  0,  8,  0,  0,  7,  0,  9,  9,  8,  9,  4,  0,  7,  6,  0,  0,  5,  3,  0,  9,  9,  0,  5,  0,  0,  0,  3,  0,  3,  0,  0,  9,  6,  7,  0,  6,  6,  6,  0,  0,  0,  2,  0,  0,  0,  6,  0,  5
        |  9,  4,  2,  6,  7,  4,  4,  3,  3,  7,  6,  7,  9,  8,  7,  8,  8,  7,  9,  9,  8, 10,  7,  5,  4,  3,  1,  7,  3,  3,  8,  9,  7,  6,  6,  5,  5,  5,  5,  4,  4,  3,  9,  8,  6,  7,  1,  1
        |  7,  7,  2,  6,  8,  5,  5,  4,  2,  9,  5,  6,  9,  7,  5, 10,  8,  5,  5,  4,  2,  6,  6,  5,  8,  7,  6,  9,  7,  7, 10, 10, 10,  6,  6,  6,  8,  7,  7,  2,  2,  2,  8,  8,  8,  2,  2,  2 |];
